\ Model opf_with_dc_load_flow_copy_copy
\ LP format - for model browsing. Use MPS format to capture full model detail.
Minimize
 
Subject To
 power_flow_648_2: 54.94505494505496 theta_648[2]
   - 172.8574455847183 theta_648[3] + 54.94505494505496 theta_648[4]
   + 62.96733569460844 theta_648[11] = 0
 power_flow_648_3: 54.94505494505496 theta_648[3]
   - 163.86211191406 theta_648[4] + 54.94505494505496 theta_648[5]
   + 53.97200202395009 theta_648[12] = 0
 power_flow_648_4: 54.94505494505496 theta_648[4]
   - 109.8901098901099 theta_648[5] + 54.94505494505496 theta_648[6] = 0
 power_flow_648_5: 54.94505494505496 theta_648[5]
   - 172.8574455847183 theta_648[6] + 54.94505494505496 theta_648[7]
   + 62.96733569460844 theta_648[16] = 0
 power_flow_648_6: 54.94505494505496 theta_648[6]
   - 109.8901098901099 theta_648[7] + 54.94505494505496 theta_648[8] = 0
 power_flow_648_7: 54.94505494505496 theta_648[7]
   - 109.8901098901099 theta_648[8] + 54.94505494505496 theta_648[9] = 0
 power_flow_648_8: 54.94505494505496 theta_648[8]
   - 172.8574455847183 theta_648[9] + 54.94505494505496 theta_648[10]
   + 62.96733569460844 theta_648[17] = 0
 power_flow_648_9: 54.94505494505496 theta_648[9]
   - 117.9123906396634 theta_648[10] + 62.96733569460844 theta_648[18] = 0
 power_flow_648_10: 62.96733569460844 theta_648[3]
   - 62.96733569460844 theta_648[11] = 0.16422255859375
 power_flow_648_11: 53.97200202395009 theta_648[4]
   - 107.9440040479002 theta_648[12] + 53.97200202395009 theta_648[13] = 0
 power_flow_648_12: 53.97200202395009 theta_648[12]
   - 107.9440040479002 theta_648[13] + 53.97200202395009 theta_648[14] = 0
 power_flow_648_13: 53.97200202395009 theta_648[13]
   - 116.9393377185585 theta_648[14] + 62.96733569460844 theta_648[15] = 0
 power_flow_648_14: 62.96733569460844 theta_648[14]
   - 62.96733569460844 theta_648[15] = 0.16422255859375
 power_flow_648_15: 62.96733569460844 theta_648[6]
   - 62.96733569460844 theta_648[16] = 0.16422255859375
 power_flow_648_16: 62.96733569460844 theta_648[9]
   - 62.96733569460844 theta_648[17] = 0.16422255859375
 power_flow_648_17: 62.96733569460844 theta_648[10]
   - 62.96733569460844 theta_648[18] = 0.16422255859375
 abs_current_mag_ka_pos_1_648: - 79.30635565791562 theta_648[2]
   + 79.30635565791562 theta_648[3] + abs_current_mag_ka_1_648 >= 0
 line_loading_648_1: 100 abs_current_mag_ka_1_648 <= 100
Bounds
 theta_648[2] free
 theta_648[3] free
 theta_648[4] free
 theta_648[5] free
 theta_648[6] free
 theta_648[7] free
 theta_648[8] free
 theta_648[9] free
 theta_648[10] free
 theta_648[11] free
 theta_648[12] free
 theta_648[13] free
 theta_648[14] free
 theta_648[15] free
 theta_648[16] free
 theta_648[17] free
 theta_648[18] free
 abs_current_mag_ka_1_648 free
End
